$rem
SCF_PRINT                     1
BASIS                         6-311++g**
SCF_SAVE_MATRICES             1
SCF_CONVERGENCE               5
SCF_FINAL_PRINT               1
METHOD                        hf
JOBTYPE                       sp
$end

$molecule
0 1
C    -1.2471894    -1.1718212    -0.6961388
C    -1.2471894    -1.1718212    0.6961388
N    -0.258951    -1.7235771    1.4144796
C    0.7315327    -2.2652221    0.6967288
C    0.7315327    -2.2652221    -0.6967288
N    -0.258951    -1.7235771    -1.4144796
H    -2.0634363    -0.7223199    -1.2472797
H    -2.0634363    -0.7223199    1.2472797
H    1.5488004    -2.7128282    1.2475604
H    1.5488004    -2.7128282    -1.2475604
$end


