$rem
SCF_PRINT                     1
BASIS                         6-311++g**
SCF_SAVE_MATRICES             1
SCF_CONVERGENCE               5
SCF_FINAL_PRINT               1
METHOD                        hf
JOBTYPE                       sp
$end

$molecule
0 1
O    4.855012535    0.847915867    1.349033039
C    5.32441412    0.241999249    0.411201439
H    6.411534668    0.146524254    0.26874794
H    4.686070972    -0.241736004    -0.342833789
$end


