$rem
SCF_PRINT                     1
BASIS                         6-311++g**
SCF_SAVE_MATRICES             1
SCF_CONVERGENCE               5
SCF_FINAL_PRINT               1
METHOD                        hf
JOBTYPE                       sp
$end

$molecule
0 1
O    -1.551007    -0.11452    0.0
H    -1.934259    0.762503    0.0
H    -0.599677    0.040712    0.0
$end


