$rem
SCF_PRINT                     1
BASIS                         6-311++g**
SCF_SAVE_MATRICES             1
SCF_CONVERGENCE               5
SCF_FINAL_PRINT               1
METHOD                        hf
JOBTYPE                       sp
$end

$molecule
0 1
F    -0.071729041    -0.108855435    0.260652232
H    -0.003218488    -0.010570213    1.202783243
$end


