$molecule
   0  1
   C       -2.83034        2.46352        0.00000
   C       -1.31827        2.46353       -0.00000
   H       -3.82434        2.46352        0.00000
   H       -0.32427        2.46353       -0.00000
$end

$rem
   JOBTYPE              aimd
   AIMD_METHOD          bomd
   METHOD               hf
   BASIS                6-31g*
   TIME_STEP            20        (20 a.u. = 0.48 fs) 
   AIMD_STEPS           200
   AIMD_INIT_VELOC      thermal
   AIMD_TEMP            298
$end 
