$rem
SCF_PRINT                     1
BASIS                         6-311++g**
SCF_SAVE_MATRICES             1
SCF_CONVERGENCE               5
SCF_FINAL_PRINT               1
METHOD                        hf
JOBTYPE                       sp
$end

$molecule
0 1
C    -0.45374374    0.000182739    1.059200327
C    0.583994572    -2.8402e-05    1.98824481
C    1.911123808    -0.00014276    1.563951774
C    2.200015462    -6.0948e-05    0.200857138
C    1.171852556    0.000151689    -0.738466754
H    -1.486276324    0.000268975    1.377240603
H    0.351319424    -0.000103142    3.044291019
H    2.712830438    -0.00029039    2.288837764
H    3.227238082    -0.000162856    -0.136887263
H    1.3832747    0.000214894    -1.797905634
C    -0.149841459    0.000281008    -0.299799844
Cl    -1.432288391    0.000559697    -1.466414983
O    -3.696572914    0.000152987    -3.61861755
C    -4.843989757    0.001944155    -3.211415447
C    -6.003097569    -0.000552348    -4.185876962
C    -5.132206123    0.006671195    -1.72526393
H    -5.91776328    0.87330307    -4.829393925
H    -5.918845591    -0.878698982    -4.823653257
H    -6.973224937    0.001637767    -3.699032662
H    -6.193070441    0.008055248    -1.495292581
H    -4.662540213    -0.867116113    -1.276801052
H    -4.661407822    0.882569128    -1.28215677
$end


