$rem
SCF_PRINT                     1
BASIS                         6-311++g**
SCF_SAVE_MATRICES             1
SCF_CONVERGENCE               5
SCF_FINAL_PRINT               1
METHOD                        hf
JOBTYPE                       sp
$end

$molecule
0 1
C    -0.471925    -0.471925    -1.859111
C    0.471925    0.471925    -1.859111
H    -0.872422    -0.872422    -0.936125
H    0.872422    0.872422    -0.936125
H    -0.870464    -0.870464    -2.783308
H    0.870464    0.870464    -2.783308
$end


