$rem
SCF_PRINT                     1
BASIS                         6-311++g**
SCF_SAVE_MATRICES             1
SCF_CONVERGENCE               5
SCF_FINAL_PRINT               1
METHOD                        hf
JOBTYPE                       sp
$end

$molecule
0 1
C    0.0    0.0    1.0590353
C    0.0    -1.2060084    1.7576742
C    0.0    -1.2071767    3.1515905
C    0.0    0.0    3.8485751
C    0.0    1.2071767    3.1515905
C    0.0    1.2060084    1.7576742
H    0.0    0.0    -0.0215805
H    0.0    -2.1416387    1.2144217
H    0.0    -2.1435657    3.6929953
H    0.0    0.0    4.9301499
H    0.0    2.1435657    3.6929953
H    0.0    2.1416387    1.2144217
$end


