$rem
SCF_PRINT                     1
BASIS                         6-311++g**
SCF_SAVE_MATRICES             1
SCF_CONVERGENCE               5
SCF_FINAL_PRINT               1
METHOD                        hf
JOBTYPE                       sp
$end

$molecule
0 1
C    -0.0210742    1.5318615    -1.3639345
C    -1.2746794    0.974103    -1.6074097
C    -1.3783055    -0.2256981    -2.3084154
C    -0.2289426    -0.8664053    -2.7687944
C    1.0247882    -0.3035171    -2.531241
C    1.1289996    0.8966787    -1.829983
H    0.060074    2.4565627    -0.8093957
H    -2.1651002    1.4654521    -1.2405676
H    -2.3509735    -0.6616122    -2.4926698
H    -0.3103419    -1.7955762    -3.3172704
H    1.9165847    -0.7940845    -2.8993942
H    2.1000347    1.3326757    -1.640042
$end


