$rem
SCF_PRINT                     1
BASIS                         6-311++g**
SCF_SAVE_MATRICES             1
SCF_CONVERGENCE               5
SCF_FINAL_PRINT               1
METHOD                        hf
JOBTYPE                       sp
$end

$molecule
0 1
O    4.809254249    0.837030654    1.16946155
C    5.556540758    0.235129869    0.427979466
H    6.648084457    0.296357069    0.53669294
H    5.177061701    -0.398984543    -0.386517855
$end


