$rem
AIMD_STEPS                    400
FOCK_EXTRAP_POINTS            12
MAX_SCF_CYCLES                100
BASIS                         sto-3g
AIMD_INIT_VELOC               thermal
FOCK_EXTRAP_ORDER             6
AIMD_TEMP                     400
AIMD_METHOD                   bomd
TIME_STEP                     20
METHOD                        hf
JOBTYPE                       aimd
$end

$molecule
0 1
C    5.34812    0.62518    0.04165
C    4.06932    0.29816    -0.17576
H    5.97710    0.00015    0.66777
H    5.79997    1.51237    -0.39032
C    3.18693    1.08902    -0.99708
C    1.90582    0.76670    -1.20900
H    1.45135    -0.11616    -0.77094
H    1.27738    1.39215    -1.83522
H    3.66785    -0.60291    0.28332
H    3.59033    1.98669    -1.46115
$end


