$rem
AIMD_STEPS                    400
FOCK_EXTRAP_POINTS            12
MAX_SCF_CYCLES                100
BASIS                         sto-3g
AIMD_INIT_VELOC               thermal
FOCK_EXTRAP_ORDER             6
AIMD_TEMP                     400
AIMD_METHOD                   bomd
TIME_STEP                     20
METHOD                        hf
JOBTYPE                       aimd
$end

$molecule
0 1
C    4.57455    0.28078    0.32857
C    3.44321    0.82503    -0.13331
H    5.50743    0.83443    0.28962
H    4.60502    -0.71737    0.75362
C    2.17575    0.13833    -0.10764
C    1.04261    0.68425    -0.56367
H    0.11009    0.13003    -0.52441
H    1.01034    1.68482    -0.98285
H    3.47038    1.83028    -0.54877
H    2.14981    -0.86892    0.30310
$end


