$rem
AIMD_STEPS                    400
FOCK_EXTRAP_POINTS            12
MAX_SCF_CYCLES                100
BASIS                         sto-3g
AIMD_INIT_VELOC               thermal
FOCK_EXTRAP_ORDER             6
AIMD_TEMP                     400
AIMD_METHOD                   bomd
TIME_STEP                     20
METHOD                        hf
JOBTYPE                       aimd
$end

$molecule
0 1
C    4.55565    0.06376    0.52602
C    3.53603    0.85052    -0.16780
H    5.28465    1.31756    0.78717
H    5.18848    -1.20415    0.35045
C    2.27409    -0.07831    0.14134
C    0.82047    1.19212    -0.63454
H    0.99141    2.08070    -1.39667
H    -0.20140    0.30044    -0.44289
H    3.60257    1.73308    -1.06844
H    2.33540    -1.13929    0.69424
$end


