$rem
AIMD_STEPS                    400
FOCK_EXTRAP_POINTS            12
MAX_SCF_CYCLES                100
BASIS                         sto-3g
AIMD_INIT_VELOC               thermal
FOCK_EXTRAP_ORDER             6
AIMD_TEMP                     400
AIMD_METHOD                   bomd
TIME_STEP                     20
METHOD                        hf
JOBTYPE                       aimd
$end

$molecule
0 1
C    7.65778    -2.01775    0.60569
C    6.61363    -1.31889    0.14578
H    8.55500    -1.50858    0.94307
H    7.65404    -3.10213    0.64848
C    5.39852    -1.94060    -0.31786
C    4.39639    -1.25212    -0.87682
H    4.44406    -0.17785    -1.02298
H    3.49949    -1.76198    -1.21403
H    6.67496    -0.23306    0.11559
H    5.30165    -3.01836    -0.20466
$end


