$rem
AIMD_STEPS                    400
FOCK_EXTRAP_POINTS            12
MAX_SCF_CYCLES                100
BASIS                         sto-3g
AIMD_INIT_VELOC               thermal
FOCK_EXTRAP_ORDER             6
AIMD_TEMP                     400
AIMD_METHOD                   bomd
TIME_STEP                     20
METHOD                        hf
JOBTYPE                       aimd
$end

$molecule
0 1
C    5.40431    -0.88911    -0.33644
C    4.31190    -0.11750    -0.30824
H    6.22960    -0.69947    0.34271
H    5.50809    -1.72011    -1.02676
C    3.18577    -0.32114    -1.18516
C    2.09463    0.45272    -1.16054
H    1.26970    0.26254    -1.83996
H    1.99223    1.28659    -0.47348
H    4.26145    0.70291    0.40466
H    3.23494    -1.14384    -1.89555
$end


