$rem
   JOBTYPE              aimd
   AIMD_METHOD          bomd
   METHOD               hf
   BASIS                sto-3g
   TIME_STEP            20        (20 a.u. = 0.48 fs) 
   AIMD_STEPS           400
   AIMD_INIT_VELOC      thermal
   AIMD_TEMP            400
   MAX_SCF_CYCLES       100
   FOCK_EXTRAP_ORDER    6         
   FOCK_EXTRAP_POINTS   12
$end

$molecule
	READ Butadien_1.mol
$end


