$rem
SCF_PRINT                     1
BASIS                         6-311++g**
SCF_SAVE_MATRICES             1
SCF_CONVERGENCE               5
SCF_FINAL_PRINT               1
METHOD                        hf
JOBTYPE                       sp
$end

$molecule
0 1
C    -0.43601987    -1.503e-06    1.035407288
C    0.589762206    -1.3214e-05    1.978500062
C    1.922247312    -6.201e-06    1.571695588
C    2.228266034    -2.1972e-05    0.212569121
C    1.211087138    -6.405e-06    -0.74015358
H    -1.46924203    -1.95e-06    1.352224613
H    0.343101091    -8.425e-06    3.031629685
H    2.714694228    1.1502e-05    2.307032918
H    3.260261396    -2.6554e-05    -0.11155152
H    1.450707808    -1.0108e-05    -1.793985522
C    -0.120402824    2.2122e-05    -0.32357594
I    -1.658224104    0.000221203    -1.73801997
$end


