$rem
SCF_PRINT                     1
BASIS                         6-311++g**
SCF_SAVE_MATRICES             1
SCF_CONVERGENCE               5
SCF_FINAL_PRINT               1
METHOD                        hf
JOBTYPE                       sp
$end

$molecule
0 1
C    0.00591865    -0.003496527    1.853878993
F    -1.172542855    0.674817567    1.614587488
H    0.830709843    0.546048289    1.407962789
H    -0.056058041    -0.993747823    1.41035538
H    0.156078035    -0.088328739    2.927069055
$end


