$rem
SCF_PRINT                     1
BASIS                         6-311++g**
SCF_SAVE_MATRICES             1
SCF_CONVERGENCE               5
SCF_FINAL_PRINT               1
METHOD                        hf
JOBTYPE                       sp
$end

$molecule
0 1
C    1.3932178    0.0362913    -0.6332803
C    0.7280364    -1.1884015    -0.6333017
C    -0.6651797    -1.2247077    -0.6332803
C    -1.3932041    -0.0362972    -0.6333017
C    -0.7280381    1.1884163    -0.6332803
C    0.6651677    1.2246987    -0.6333017
H    2.4742737    0.0644484    -0.631724
H    1.2929588    -2.1105409    -0.6317401
H    -1.1813229    -2.1750081    -0.631724
H    -2.4742614    -0.0644647    -0.6317401
H    -1.2929508    2.1105596    -0.631724
H    1.1813026    2.1750056    -0.6317401
$end


