$rem
SCF_PRINT                     1
BASIS                         6-311++g**
SCF_SAVE_MATRICES             1
SCF_CONVERGENCE               5
SCF_FINAL_PRINT               1
METHOD                        hf
JOBTYPE                       sp
$end

$molecule
0 1
F    -2.268328468    -1.958202889    -0.323025092
F    -2.703690585    0.725550383    -0.25311904
C    0.039970416    -1.620649062    0.000627529
C    -1.246714568    -1.122331457    -0.158188956
C    -1.468960632    0.248281616    -0.123448223
C    -0.404843176    1.120110725    0.068321788
C    0.88286916    0.622303553    0.223239994
C    1.104164281    -0.748842052    0.192245986
F    -0.620157741    2.430732722    0.113060107
F    1.901232288    1.45642417    0.399377483
F    0.250821528    -2.933836485    -0.010169125
F    2.333223855    -1.227390582    0.354782679
H    -1.719265622    -1.313070599    3.23511468
H    -2.117120419    1.131566386    3.250807086
C    0.409478083    -1.12597989    3.47677448
C    -0.887013607    -0.630037228    3.342089837
C    -1.111190459    0.746396788    3.352790675
C    -0.039417816    1.626442678    3.499615551
C    1.256371149    1.130100736    3.634840523
C    1.481108571    -0.245785431    3.623479226
H    -0.21365013    2.693766913    3.507370558
H    2.087582706    1.812593825    3.746420458
H    0.583630925    -2.193775854    3.470689289
H    2.486380394    -0.630785067    3.727095469
$end


