$rem
SCF_PRINT                     1
BASIS                         6-311++g**
SCF_SAVE_MATRICES             1
SCF_CONVERGENCE               5
SCF_FINAL_PRINT               1
METHOD                        hf
JOBTYPE                       sp
$end

$molecule
0 1
C    2.5118997    1.6250148    0.0
C    2.7130094    0.9578537    -1.2082918
C    3.1177821    -0.3767436    -1.2083647
C    3.3213848    -1.0437307    0.0
C    3.1177821    -0.3767436    1.2083647
C    2.7130094    0.9578537    1.2082918
H    2.2024038    2.6611358    0.0
H    2.551176    1.4736908    -2.14459
H    3.2702999    -0.8951406    -2.1448379
H    3.6368139    -2.0781521    0.0
H    3.2702999    -0.8951406    2.1448379
H    2.551176    1.4736908    2.14459
$end


