$rem
SCF_PRINT                     1
BASIS                         6-311++g**
SCF_SAVE_MATRICES             1
SCF_CONVERGENCE               5
SCF_FINAL_PRINT               1
METHOD                        hf
JOBTYPE                       sp
$end

$molecule
0 1
Cl    1.5347557    -2.78e-07    -3.014973713
C    -0.250343184    1.1724e-05    -3.026056648
H    -0.580143384    1.8132e-05    -4.057685667
H    -0.592367277    -0.887056056    -2.508114642
H    -0.592357482    0.887077343    -2.508105102
$end


