$rem
SCF_PRINT                     1
BASIS                         6-311++g**
SCF_SAVE_MATRICES             1
SCF_CONVERGENCE               5
SCF_FINAL_PRINT               1
METHOD                        hf
JOBTYPE                       sp
$end

$molecule
0 1
C    0.250211388    -0.141261283    2.278305952
F    0.055015573    -0.060688554    0.911538424
H    1.18931025    0.342978795    2.531275149
H    0.282891774    -1.187166859    2.570525524
H    -0.571443596    0.358513497    2.783864006
C    -0.222998033    0.125060181    -2.031995678
F    -0.353854222    0.228242626    -3.40533891
H    -1.074191041    -0.417537604    -1.631229882
H    0.694086089    -0.408170093    -1.799115801
H    -0.187197902    1.12079354    -1.599918593
$end


