$rem
SCF_PRINT                     1
BASIS                         6-311++g**
SCF_SAVE_MATRICES             1
SCF_CONVERGENCE               5
SCF_FINAL_PRINT               1
METHOD                        hf
JOBTYPE                       sp
$end

$molecule
0 1
C    0.0    0.0    2.900503
C    0.0    0.0    1.69324
H    0.0    0.0    0.627352
H    0.0    0.0    3.963929
$end


