$rem
SCF_PRINT                     1
BASIS                         6-311++g**
SCF_SAVE_MATRICES             1
SCF_CONVERGENCE               5
SCF_FINAL_PRINT               1
METHOD                        hf
JOBTYPE                       sp
$end

$molecule
0 1
C    -2.0071056    0.7638459    -0.1083509
O    -1.3885044    1.9298523    -0.4431206
H    -0.5238121    1.9646519    -0.0064609
C    -1.4630807    -0.151912    0.794993
C    -2.1475789    -1.3295094    1.0883677
C    -3.3743208    -1.6031427    0.4895864
C    -3.9143727    -0.6838545    -0.4091028
C    -3.2370496    0.4929609    -0.7096126
H    -0.510651    0.0566569    1.2642563
H    -1.7151135    -2.0321452    1.7878417
H    -3.9024664    -2.5173865    0.7197947
H    -4.867073    -0.8822939    -0.8811319
H    -3.6431662    1.2134345    -1.405759
$end


