$rem
SCF_PRINT                     1
BASIS                         6-311++g**
SCF_SAVE_MATRICES             1
SCF_CONVERGENCE               5
SCF_FINAL_PRINT               1
METHOD                        hf
JOBTYPE                       sp
$end

$molecule
0 1
C    -0.248215463    0.147563142    -2.354598055
Cl    -0.430872029    0.266976908    -4.12111099
H    -1.097215819    -0.394125438    -1.955018213
H    0.671578312    -0.381551292    -2.136340484
H    -0.212788793    1.148538795    -1.941709395
$end


