$rem
SCF_PRINT                     1
BASIS                         6-311++g**
SCF_SAVE_MATRICES             1
SCF_CONVERGENCE               5
SCF_FINAL_PRINT               1
METHOD                        hf
JOBTYPE                       sp
$end

$molecule
0 1
N    1.2754606    -0.6478993    -1.9779104
C    1.4130533    -1.553685    -0.9550667
H    2.4258769    -1.867078    -0.7468778
C    0.3575976    -2.0239499    -0.2530575
C    0.4821292    -3.0179494    0.8521221
H    0.1757705    -2.5756065    1.7986281
H    -0.1601691    -3.8770412    0.6639498
H    1.5112443    -3.3572767    0.9513659
C    -0.9684711    -1.5298112    -0.5939792
O    -2.002928    -1.8396957    -0.0199453
N    -0.9956916    -0.638387    -1.672042
H    -1.9014057    -0.250172    -1.898576
C    0.0684702    -0.1191762    -2.3763759
O    -0.0397875    0.7227006    -3.2531083
H    2.0853289    -0.2760176    -2.4454577
$end


