$rem
SCF_PRINT                     1
BASIS                         6-311++g**
SCF_SAVE_MATRICES             1
SCF_CONVERGENCE               5
SCF_FINAL_PRINT               1
METHOD                        hf
JOBTYPE                       sp
$end

$molecule
0 1
C    1.037288    0.000539    -0.582102
C    -0.176487    -0.000271    0.102715
C    -0.183174    -0.000518    1.498133
C    1.01988    4e-05    2.205172
C    2.228616    0.000848    1.511505
C    2.241753    0.001096    0.118273
I    -2.004073    -0.001696    2.534377
H    1.013157    -0.000135    3.286244
H    3.159115    0.001279    2.063225
H    3.181398    0.001715    -0.416415
H    1.038283    0.000729    -1.663869
H    -1.109304    -0.000688    -0.443732
$end


