$rem
SCF_PRINT                     1
BASIS                         6-311++g**
SCF_SAVE_MATRICES             1
SCF_CONVERGENCE               5
SCF_FINAL_PRINT               1
METHOD                        hf
JOBTYPE                       sp
$end

$molecule
0 1
C    -0.029223    -0.304334    -0.044139
Cl    -2.190285388    -2.636684923    -0.981703134
Cl    -3.492714388    -4.043406923    -1.546246134
H    -1.013963    0.140625    -0.15039
H    -0.06119    -1.086463    0.708351
H    0.678304    0.459656    0.262535
H    0.286077    -0.724543    -0.994403
$end


