$rem
SCF_PRINT                     1
BASIS                         6-311++g**
SCF_SAVE_MATRICES             1
SCF_CONVERGENCE               5
SCF_FINAL_PRINT               1
METHOD                        hf
JOBTYPE                       sp
$end

$molecule
0 1
Cl    0.37773392    -4.83e-07    0.006430557
H    0.049409273    -1.882e-06    1.255616511
O    -0.222171001    7.107e-06    3.082519813
H    -1.034384448    -5.361e-06    3.593737797
C    0.882609855    1.116e-06    3.981271022
H    1.779241003    -4.02e-07    3.370105894
H    0.890969395    0.888981441    4.610910354
H    0.890965051    -0.888981553    4.610907087
$end


