$rem
SCF_PRINT                     1
BASIS                         6-311++g**
SCF_SAVE_MATRICES             1
SCF_CONVERGENCE               5
SCF_FINAL_PRINT               1
METHOD                        hf
JOBTYPE                       sp
$end

$molecule
0 1
C    -2.018649    0.052883    0.0
O    -1.4522    1.143634    0.0
N    -1.40777    -1.142484    0.0
H    -1.964596    -1.977036    0.0
H    -0.387244    -1.207782    0.0
H    -3.117061    -0.013701    0.0
C    2.018649    -0.052883    0.0
O    1.4522    -1.143634    0.0
N    1.40777    1.142484    0.0
H    1.964596    1.977036    0.0
H    0.387244    1.207782    0.0
H    3.117061    0.013701    0.0
$end


