$rem
SCF_PRINT                     1
BASIS                         6-311++g**
SCF_SAVE_MATRICES             1
SCF_CONVERGENCE               5
SCF_FINAL_PRINT               1
METHOD                        hf
JOBTYPE                       sp
$end

$molecule
0 1
C    0.017128682    -0.009767481    -1.680303942
H    -0.063241616    0.035668447    -2.761803854
H    -0.841686927    -0.534736175    -1.274267671
H    0.927869926    -0.535377764    -1.409431408
H    0.042730234    0.99699675    -1.275640625
$end


