$rem
SCF_PRINT                     1
BASIS                         6-311++g**
SCF_SAVE_MATRICES             1
SCF_CONVERGENCE               5
SCF_FINAL_PRINT               1
METHOD                        hf
JOBTYPE                       sp
$end

$molecule
0 1
N    0.065505431    0.069212229    2.980516721
H    1.017174917    0.090660584    3.323272637
C    -0.621666375    -1.143104238    3.441045492
H    -1.635399136    -1.140501949    3.050017598
H    -0.113160069    -2.01096036    3.030175196
H    -0.663681534    -1.241291225    4.525847684
H    -0.392131755    0.896265391    3.341308529
$end


