$rem
SCF_PRINT                     1
BASIS                         6-311++g**
SCF_SAVE_MATRICES             1
SCF_CONVERGENCE               5
SCF_FINAL_PRINT               1
METHOD                        hf
JOBTYPE                       sp
$end

$molecule
0 1
C    -1.3940633    0.0    -2.4541524
C    -0.6970468    1.2072378    -2.4546277
C    0.6970468    1.2072378    -2.4546277
C    1.3940633    0.0    -2.4541524
C    0.6970468    -1.2072378    -2.4546277
C    -0.6970468    -1.2072378    -2.4546277
H    -2.4753995    0.0    -2.4503221
H    -1.2382321    2.1435655    -2.4536764
H    1.2382321    2.1435655    -2.4536764
H    2.4753995    0.0    -2.4503221
H    1.2382321    -2.1435655    -2.4536764
H    -1.2382321    -2.1435655    -2.4536764
$end


