$rem
SCF_PRINT                     1
BASIS                         6-311++g**
SCF_SAVE_MATRICES             1
SCF_CONVERGENCE               5
SCF_FINAL_PRINT               1
METHOD                        hf
JOBTYPE                       sp
$end

$molecule
0 1
C    -0.7097741    -0.990423    1.2077018
C    -1.406534    -0.9653529    0.0
C    -0.7097741    -0.990423    -1.2077018
C    0.6839651    -1.0405105    -1.2078652
C    1.3809779    -1.0655522    0.0
C    0.6839651    -1.0405105    1.2078652
H    -1.2499482    -0.968628    2.1440507
H    -2.4869197    -0.923706    0.0
H    -1.2499482    -0.968628    -2.1440507
H    1.2242882    -1.0580753    -2.1442563
H    2.4615886    -1.1029818    0.0
H    1.2242882    -1.0580753    2.1442563
$end


