$rem
SCF_PRINT                     1
BASIS                         6-311++g**
SCF_SAVE_MATRICES             1
SCF_CONVERGENCE               5
SCF_FINAL_PRINT               1
METHOD                        hf
JOBTYPE                       sp
$end

$molecule
0 1
N    0.180393    -2.9491231    0.0
H    0.7595495    -3.1459477    -0.8060729
H    0.7595495    -3.1459477    0.8060729
H    0.0444167    -1.9449399    0.0
$end


