$rem
SCF_PRINT                     1
BASIS                         6-311++g**
SCF_SAVE_MATRICES             1
SCF_CONVERGENCE               5
SCF_FINAL_PRINT               1
METHOD                        hf
JOBTYPE                       sp
$end

$molecule
0 1
O    -0.822589646    0.130751992    -0.00467018
H    0.151322978    0.236946671    -0.005208468
C    -1.09449506    -1.17158663    -0.000235811
F    -2.408360005    -1.348046797    0.002362133
F    -0.590968467    -1.812045684    -1.074390844
F    -0.58752505    -1.805322781    1.076316471
$end


