$rem
SCF_PRINT                     1
BASIS                         6-311++g**
SCF_SAVE_MATRICES             1
SCF_CONVERGENCE               5
SCF_FINAL_PRINT               1
METHOD                        hf
JOBTYPE                       sp
$end

$molecule
0 1
C    -0.032603    -0.245329    -0.035933
H    -0.980553    0.254481    -0.212468
H    -0.160128    -1.020226    0.714308
H    0.692193    0.480189    0.320357
H    0.328323    -0.68552    -0.960895
$end


