$rem
SCF_PRINT                     1
BASIS                         6-311++g**
SCF_SAVE_MATRICES             1
SCF_CONVERGENCE               5
SCF_FINAL_PRINT               1
METHOD                        hf
JOBTYPE                       sp
$end

$molecule
0 1
N    1.4327616    0.3639703    -0.0159508
C    2.11542    -0.780345    0.1681099
C    3.5237586    -0.8016096    0.1545027
C    4.2185897    0.3735783    -0.0525929
C    3.5099708    1.5615014    -0.2449763
C    2.1280138    1.4953324    -0.2175374
H    4.0459206    -1.7361356    0.3076883
H    5.2999426    0.3666009    -0.0663349
H    4.0110923    2.5024313    -0.4130052
H    1.5339878    2.3893837    -0.3670565
N    1.3883123    -1.9083038    0.4198149
H    1.8694714    -2.7812773    0.2940385
H    0.4089067    -1.9079942    0.130086
$end


