$rem
AIMD_STEPS                    1000
FOCK_EXTRAP_POINTS            12
MAX_SCF_CYCLES                200
BASIS                         6-311++g**
AIMD_INIT_VELOC               thermal
FOCK_EXTRAP_ORDER             6
AIMD_TEMP                     450
AIMD_METHOD                   bomd
TIME_STEP                     20
METHOD                        hf
JOBTYPE                       aimd
$end

$molecule
0 1
C       -1.5111664211      0.7913037640      0.0000000000                 
C       -3.4130191105      0.3394161783     -0.1246134612                 
H       -4.5866975615     -0.5395381238     -0.0324362799                 
H       -3.8147006032      1.0604771212      0.6951381685                 
H       -1.5811011995     -0.4488897425      0.1032758026                 
H       -1.3562657322      2.0965870445     -0.2119885552                 
$end


