$rem
SCF_PRINT                     1
BASIS                         6-311++g**
SCF_SAVE_MATRICES             1
SCF_CONVERGENCE               5
SCF_FINAL_PRINT               1
METHOD                        hf
JOBTYPE                       sp
$end

$molecule
0 1
O    -3.696572914    0.000152987    -3.61861755
C    -4.843989757    0.001944155    -3.211415447
C    -6.003097569    -0.000552348    -4.185876962
C    -5.132206123    0.006671195    -1.72526393
H    -5.91776328    0.87330307    -4.829393925
H    -5.918845591    -0.878698982    -4.823653257
H    -6.973224937    0.001637767    -3.699032662
H    -6.193070441    0.008055248    -1.495292581
H    -4.662540213    -0.867116113    -1.276801052
H    -4.661407822    0.882569128    -1.28215677
$end


