$rem
SCF_PRINT                     1
BASIS                         6-311++g**
SCF_SAVE_MATRICES             1
SCF_CONVERGENCE               5
SCF_FINAL_PRINT               1
METHOD                        hf
JOBTYPE                       sp
$end

$molecule
0 1
C    -0.08221802    -0.061558741    -0.10680848
I    1.901225752    0.399212623    0.532188762
F    -0.250022308    -1.377895721    -0.214057562
F    -0.977880861    0.400686285    0.761715653
F    -0.335197352    0.485382328    -1.293788995
O    4.809254249    0.837030654    1.16946155
C    5.556540758    0.235129869    0.427979466
H    6.648084457    0.296357069    0.53669294
H    5.177061701    -0.398984543    -0.386517855
$end


