$rem
SCF_PRINT                     1
BASIS                         6-311++g**
SCF_SAVE_MATRICES             1
SCF_CONVERGENCE               5
SCF_FINAL_PRINT               1
METHOD                        hf
JOBTYPE                       sp
$end

$molecule
0 1
H    0.022106668    0.337720036    0.044305376
C    0.026919353    0.297157256    1.127793236
C    1.232420009    0.374285365    1.823206501
C    1.238505395    0.31830385    3.215636232
C    0.039447508    0.184540972    3.91325517
C    -1.166219961    0.107113476    3.218629152
C    -1.172980038    0.163913404    1.825514693
H    2.16553244    0.474316067    1.280310128
H    2.176629361    0.375131147    3.756175076
H    0.04471698    0.13704066    4.996380563
H    -2.098861603    -0.000562861    3.760947121
H    -2.110703107    0.101604635    1.284610113
$end


