$rem
SCF_PRINT                     1
BASIS                         6-311++g**
SCF_SAVE_MATRICES             1
SCF_CONVERGENCE               5
SCF_FINAL_PRINT               1
METHOD                        hf
JOBTYPE                       sp
$end

$molecule
0 1
O    -3.949939923    -0.00014345    -3.815896908
C    -3.800618306    0.0037715    -5.025811592
C    -2.413746868    0.013928662    -5.628840849
C    -5.004091973    -0.001515653    -5.942215119
H    -1.881038094    0.891330448    -5.265472224
H    -1.870078249    -0.858483324    -5.269712302
H    -2.420677721    0.016520534    -6.71412314
H    -5.616269855    0.870128273    -5.717411468
H    -5.605371398    -0.881767955    -5.721583165
H    -4.740047227    0.002639189    -6.994882525
$end


