$rem
SCF_PRINT                     1
BASIS                         6-311++g**
SCF_SAVE_MATRICES             1
SCF_CONVERGENCE               5
SCF_FINAL_PRINT               1
METHOD                        hf
JOBTYPE                       sp
$end

$molecule
0 1
C    0.050957671    0.055164191    -0.032925885
H    -1.02444564    0.072269161    0.117546172
H    0.508348983    -0.636912672    0.667869998
H    0.450713107    1.050360674    0.135265329
H    0.274236028    -0.252091989    -1.05034328
$end


