$rem
SCF_PRINT                     1
BASIS                         6-311++g**
SCF_SAVE_MATRICES             1
SCF_CONVERGENCE               5
SCF_FINAL_PRINT               1
METHOD                        hf
JOBTYPE                       sp
$end

$molecule
0 1
Br    -0.037667189    -3.295073415    1.773239996
C    0.090914423    -5.222622362    1.868971791
H    0.02222022    -5.618700696    0.863215296
H    1.044380918    -5.477357114    2.315266587
H    -0.72584639    -5.587601469    2.479578125
$end


