$rem
SCF_PRINT                     1
BASIS                         6-311++g**
SCF_SAVE_MATRICES             1
SCF_CONVERGENCE               5
SCF_FINAL_PRINT               1
METHOD                        hf
JOBTYPE                       sp
$end

$molecule
0 1
C    -1.888896    -0.179692    0.0
O    -1.49328    1.073689    0.0
O    -1.170435    -1.16659    0.0
H    -2.979488    -0.258829    0.0
H    -0.498833    1.107195    0.0
$end


