$rem
SCF_PRINT                     1
BASIS                         6-311++g**
SCF_SAVE_MATRICES             1
SCF_CONVERGENCE               5
SCF_FINAL_PRINT               1
METHOD                        hf
JOBTYPE                       sp
$end

$molecule
0 1
H    0.002144194    0.361043475    0.029799709
C    0.015020592    0.274789738    1.107648016
C    1.227632658    0.29665504    1.794629427
C    1.243958826    0.183702791    3.183703934
C    0.047958213    0.048915002    3.886484583
C    -1.165135654    0.026954348    3.200213281
C    -1.181832083    0.139828643    1.810376587
H    2.155807907    0.399177037    1.249441585
H    2.184979344    0.198598553    3.716170761
H    0.060934662    -0.040672756    4.964014252
H    -2.093220602    -0.078628959    3.745125056
H    -2.122845437    0.123257119    1.277645797
Br    -0.268325907    -3.194209024    1.99445895
C    0.049999933    -5.089197474    1.929391171
F    0.078949601    -5.512441335    0.671851563
F    1.211983937    -5.3839963    2.498664481
F    -0.909987405    -5.743747328    2.570721738
$end


