$rem
SCF_PRINT                     1
BASIS                         6-311++g**
SCF_SAVE_MATRICES             1
SCF_CONVERGENCE               5
SCF_FINAL_PRINT               1
METHOD                        hf
JOBTYPE                       sp
$end

$molecule
0 1
C    1.037288    0.000539    -0.582102
C    -0.176487    -0.000271    0.102715
C    -0.183174    -0.000518    1.498133
C    1.01988    4e-05    2.205172
C    2.228616    0.000848    1.511505
C    2.241753    0.001096    0.118273
I    -2.004073    -0.001696    2.534377
H    1.013157    -0.000135    3.286244
H    3.159115    0.001279    2.063225
H    3.181398    0.001715    -0.416415
H    1.038283    0.000729    -1.663869
H    -1.109304    -0.000688    -0.443732
N    -4.582592278    -0.001974697    4.004623405
C    -5.432248278    1.033095303    3.443517405
C    -5.202064278    -1.306090697    3.850638405
C    -4.310611278    0.268567303    5.404935405
H    -5.229215278    0.283653303    6.011064405
H    -3.647037278    -0.497334697    5.803030405
H    -3.817378278    1.234370303    5.501577405
H    -6.408881278    1.087511303    3.948188405
H    -4.940827278    2.000098303    3.537088405
H    -5.600716278    0.834533303    2.386353405
H    -6.166829278    -1.372211697    4.376310405
H    -5.370060278    -1.508608697    2.794164405
H    -4.539891278    -2.074436697    4.246253405
$end


