$rem
SCF_PRINT                     1
BASIS                         6-311++g**
SCF_SAVE_MATRICES             1
SCF_CONVERGENCE               5
SCF_FINAL_PRINT               1
METHOD                        hf
JOBTYPE                       sp
$end

$molecule
0 1
C    0.092348417    -0.047899443    -0.084180609
Br    1.850295174    0.401756602    0.541215366
F    -0.041248424    -1.365231569    -0.186834437
F    -0.830122197    0.403465307    0.756154716
F    -0.127685037    0.489606579    -1.278313038
$end


