$rem
SCF_PRINT                     1
BASIS                         6-311++g**
SCF_SAVE_MATRICES             1
SCF_CONVERGENCE               5
SCF_FINAL_PRINT               1
METHOD                        hf
JOBTYPE                       sp
$end

$molecule
0 1
O    -2.788527    -0.2744854    0.0
H    -2.6229114    -1.2190831    0.0
H    -1.9015103    0.097911    0.0
$end


