$rem
SCF_PRINT                     1
BASIS                         6-311++g**
SCF_SAVE_MATRICES             1
SCF_CONVERGENCE               5
SCF_FINAL_PRINT               1
METHOD                        hf
JOBTYPE                       sp
$end

$molecule
0 1
O    1.949794791    0.377735879    -0.007230776
H    2.320041419    -0.082316123    -0.765476382
H    2.321048106    -0.079135932    0.75248655
$end


