$rem
   JOBTYPE              aimd
   AIMD_METHOD          bomd
   METHOD               hf
   BASIS                6-31g*
   TIME_STEP            20        (20 a.u. = 0.48 fs) 
   AIMD_STEPS           200
   AIMD_INIT_VELOC      thermal
   AIMD_TEMP            298
$end 


$molecule
   0 1
   C       -2.83034        2.46352        0.00000
   C       -1.31827        2.46353       -0.00000
   H       -3.34634        3.31757        0.26337
   H       -3.34634        1.60947       -0.26337
   H       -0.80227        3.31758        0.26337
   H       -0.80227        1.60948       -0.26337
$end


