$rem
SCF_PRINT                     1
BASIS                         6-311++g**
SCF_SAVE_MATRICES             1
SCF_CONVERGENCE               5
SCF_FINAL_PRINT               1
METHOD                        hf
JOBTYPE                       sp
$end

$molecule
0 1
C    -1.0064e-05    -8.2573e-05    -1.743091435
H    -3.612e-06    0.000105999    -2.828619365
H    -0.885658535    -0.511600583    -1.379811314
H    0.885727513    -0.511445556    -1.379800941
H    -0.00010144    1.022550877    -1.379525404
$end


