$rem
SCF_PRINT                     1
BASIS                         6-311++g**
SCF_SAVE_MATRICES             1
SCF_CONVERGENCE               5
SCF_FINAL_PRINT               1
METHOD                        hf
JOBTYPE                       sp
$end

$molecule
0 1
S    -3.112683203    6.289227834    1.226984439
H    -4.328789697    5.797771251    0.973373089
C    -2.689135032    6.70316383    -0.489062886
H    -1.684433029    7.115457372    -0.460265708
H    -2.683867206    5.816530502    -1.115183775
H    -3.365330613    7.451201412    -0.890098894
$end


