$rem
SCF_PRINT                     1
BASIS                         6-311++g**
SCF_SAVE_MATRICES             1
SCF_CONVERGENCE               5
SCF_FINAL_PRINT               1
METHOD                        hf
JOBTYPE                       sp
$end

$molecule
0 1
C    0.179810349    -0.077197552    -0.11802464
Cl    1.722679479    0.399031247    0.6280761
H    0.130360699    -1.159076002    -0.155096513
H    -0.630477191    0.314338739    0.48550704
H    0.134959164    0.335748179    -1.118887999
$end


