$rem
SCF_PRINT                     1
BASIS                         6-311++g**
SCF_SAVE_MATRICES             1
SCF_CONVERGENCE               5
SCF_FINAL_PRINT               1
METHOD                        hf
JOBTYPE                       sp
$end

$molecule
0 1
O    -0.778073626    0.205937567    -0.003744167
H    0.20462177    0.306150037    -0.005250247
C    -1.064673043    -1.099865265    -3.7626e-05
Cl    -2.818149715    -1.288073131    0.00234012
Cl    -0.388554792    -1.946140752    -1.447422763
Cl    -0.385461107    -1.938612521    1.450299192
O    1.949794791    0.377735879    -0.007230776
H    2.320041419    -0.082316123    -0.765476382
H    2.321048106    -0.079135932    0.75248655
$end


