$rem
SCF_PRINT                     1
BASIS                         6-311++g**
SCF_SAVE_MATRICES             1
SCF_CONVERGENCE               5
SCF_FINAL_PRINT               1
METHOD                        hf
JOBTYPE                       sp
$end

$molecule
0 1
S    -4.157443472    5.729584377    -0.878761129
H    -4.823791426    4.796089466    -1.563433338
C    -2.82833852    5.970593053    -2.091189515
H    -2.167577293    6.722356639    -1.668621815
H    -2.264954814    5.054835899    -2.240198499
H    -3.218524904    6.337447714    -3.035087058
$end


