$rem
SCF_PRINT                     1
BASIS                         6-311++g**
SCF_SAVE_MATRICES             1
SCF_CONVERGENCE               5
SCF_FINAL_PRINT               1
METHOD                        hf
JOBTYPE                       sp
$end

$molecule
0 1
C    -0.3380031    2.0800608    1.1300452
C    0.8540254    1.3593471    1.1306308
N    1.4701787    0.9907598    0.0
C    0.8540254    1.3593471    -1.1306308
C    -0.3380031    2.0800608    -1.1300452
N    -0.9523059    2.4528836    0.0
H    -0.8103758    2.3643033    2.0618643
H    1.3208583    1.067061    2.0623986
H    1.3208583    1.067061    -2.0623986
H    -0.8103758    2.3643033    -2.0618643
$end


