$rem
SCF_PRINT                     1
BASIS                         6-311++g**
SCF_SAVE_MATRICES             1
SCF_CONVERGENCE               5
SCF_FINAL_PRINT               1
METHOD                        hf
JOBTYPE                       sp
$end

$molecule
0 1
H    0.855171335    -8.119e-06    -0.588786261
O    0.27154607    1.6357e-05    0.175592508
C    1.084050448    1.807e-06    1.33525199
H    0.417831608    -2.486e-06    2.192984764
H    1.718489566    -0.886312946    1.398035525
H    1.718498554    0.886309236    1.398050411
F    1.125857154    4.199e-06    -2.561576197
C    -0.184637333    -1.453e-06    -3.025415783
H    -0.166928581    -1.809e-06    -4.110978064
H    -0.686098066    -0.888580071    -2.654737004
H    -0.686105119    0.888573338    -2.654737429
$end


