$rem
SCF_PRINT                     1
BASIS                         6-311++g**
SCF_SAVE_MATRICES             1
SCF_CONVERGENCE               5
SCF_FINAL_PRINT               1
METHOD                        hf
JOBTYPE                       sp
$end

$molecule
0 1
O    -0.304026274    -0.000209906    3.240541651
H    -1.061671708    3.4129e-05    3.830196635
C    0.877605168    -2.964e-05    4.033497508
H    1.715615561    -0.000131053    3.343283509
H    0.946841112    0.888893429    4.660263367
H    0.946888093    -0.888723395    4.66058358
$end


