$rem
   JOBTYPE Opt
   EXCHANGE RHF
   BASIS 6-31G(d,p)
   GUI=2
$end

$comment
Title
$end

$molecule
   0 1
   C       -2.83034        2.46352        0.00000
   C       -1.31827        2.46353       -0.00000
   H       -3.21474        3.47897        0.13466
   H       -3.21474        1.83919        0.81207
   H       -3.21474        2.07242       -0.94673
   H       -0.93387        2.85463        0.94673
   H       -0.93387        3.08786       -0.81207
   H       -0.93387        1.44808       -0.13466
$end


