$rem
SCF_PRINT                     1
BASIS                         6-311++g**
SCF_SAVE_MATRICES             1
SCF_CONVERGENCE               5
SCF_FINAL_PRINT               1
METHOD                        hf
JOBTYPE                       sp
$end

$molecule
0 1
H    0.8065245    -0.4358866    0.0
N    -0.1442408    -0.7686927    0.0
C    -0.5161122    -2.089322    0.0
C    -1.8898755    -2.1814495    0.0
C    -2.3932317    -0.847083    0.0
C    -1.2640653    0.0195887    0.0
C    -1.3896004    1.4117668    0.0
C    -2.6726501    1.936645    0.0
C    -3.8054511    1.097479    0.0
C    -3.6798167    -0.2817209    0.0
H    0.2310024    -2.8653173    0.0
H    -2.4585759    -3.0956052    0.0
H    -0.5188733    2.053952    0.0
H    -2.807757    3.0097859    0.0
H    -4.7905991    1.5439372    0.0
H    -4.5580187    -0.9142916    0.0
$end


