$rem
SCF_PRINT                     1
BASIS                         6-311++g**
SCF_SAVE_MATRICES             1
SCF_CONVERGENCE               5
SCF_FINAL_PRINT               1
METHOD                        hf
JOBTYPE                       sp
$end

$molecule
0 1
C    1.2171198    8.6352e-05    -0.737292531
C    2.232687859    0.000174717    0.216499979
C    1.925210087    0.000130109    1.575499453
C    0.592512132    0.000178132    1.981957864
C    -0.433049194    7.025e-05    1.038766795
H    1.448302007    -2.0318e-05    -1.79278536
H    3.264633432    0.000102432    -0.107052277
H    2.717093974    -2.3151e-05    2.311239059
H    0.345707498    0.000109507    3.034933333
H    -1.468501456    -9.3207e-05    1.34757497
C    -0.111081725    -0.000108736    -0.316810844
Br    -1.493755973    -0.001747763    -1.606462802
$end


