$rem
SCF_PRINT                     1
BASIS                         6-311++g**
SCF_SAVE_MATRICES             1
SCF_CONVERGENCE               5
SCF_FINAL_PRINT               1
METHOD                        hf
JOBTYPE                       sp
$end

$molecule
0 1
O    4.929738023    0.840944568    1.315419483
C    5.505619501    0.2504211    0.427801344
H    6.603732935    0.210582669    0.377172685
H    4.957103893    -0.273495438    -0.369061306
$end


