$rem
SCF_PRINT                     1
BASIS                         6-311++g**
SCF_SAVE_MATRICES             1
SCF_CONVERGENCE               5
SCF_FINAL_PRINT               1
METHOD                        hf
JOBTYPE                       sp
$end

$molecule
0 1
C    -0.099779142    -0.049213106    -0.049809806
H    -0.812383509    0.769437899    -0.053814782
H    -0.386626161    -0.773928179    0.705768112
H    0.890551861    0.333663823    0.175221084
H    -0.089826477    -0.524172039    -1.025860985
F    -1.055049793    -3.072557852    -0.601705876
F    -1.471602008    -4.387243371    -0.835378773
$end


