$rem
SCF_PRINT                     1
BASIS                         6-311++g**
SCF_SAVE_MATRICES             1
SCF_CONVERGENCE               5
SCF_FINAL_PRINT               1
METHOD                        hf
JOBTYPE                       sp
$end

$molecule
0 1
O    -0.167235591    0.000145557    2.943064329
H    -1.010969151    -3.9884e-05    3.399033154
C    0.88199533    1.8821e-05    3.906791538
H    1.813385323    5.9838e-05    3.351066264
H    0.849525704    0.88916881    4.534616489
H    0.849495114    -0.889261044    4.534430809
$end


