$molecule
   0 1
  Pt       -1.23239        2.53387        0.00000
  Pt        0.21499        1.13214        0.00000
  Pt        0.22221        2.91345        0.11177
  Pt       -0.40225        1.96355       -1.29171
$end

$rem
   JOBTYPE              aimd
   AIMD_METHOD          bomd
   METHOD               hf
   BASIS                gen
   ECP                  gen
   TIME_STEP            20        (20 a.u. = 0.48 fs) 
   AIMD_STEPS           200
   AIMD_INIT_VELOC      thermal
   AIMD_TEMP            700
$end 

$basis
    Pt     0 
    S   13   1.00
        103.6120000              0.0005410        
        64.6859000             -0.0042820        
        39.8400000              0.0279230        
        24.9011000             -0.1215420        
        14.0033000              0.3554330        
        7.8909000             -0.1534930        
        4.8456000             -0.7258970        
        2.3501200              0.0097520        
        1.4671700              0.7419290        
        0.7806710              0.5463830        
        0.3946960              0.1046140        
        0.1753230              0.0041520        
        0.0788420              0.0020360        
    S   13   1.00
        103.6120000             -0.0001630        
        64.6859000              0.0013240        
        39.8400000             -0.0091150        
        24.9011000              0.0414900        
        14.0033000             -0.1272130        
        7.8909000              0.0650280        
        4.8456000              0.2695050        
        2.3501200             -0.0189050        
        1.4671700             -0.3462670        
        0.7806710             -0.3651790        
        0.3946960             -0.0511390        
        0.1753230              0.4075980        
        0.0788420              0.5982990        
    S   13   1.00
        103.6120000             -0.0000140        
        64.6859000              0.0009880        
        39.8400000             -0.0135500        
        24.9011000              0.0756570        
        14.0033000             -0.2479560        
        7.8909000              0.1113150        
        4.8456000              0.6080690        
        2.3501200              0.0444240        
        1.4671700             -1.2579130        
        0.7806710             -0.8214190        
        0.3946960              1.7271730        
        0.1753230              0.7946170        
        0.0788420             -0.8962850        
    S   13   1.00
        103.6120000             -0.0005030        
        64.6859000              0.0014690        
        39.8400000              0.0108430        
        24.9011000             -0.0940950        
        14.0033000              0.3378940        
        7.8909000             -0.0650820        
        4.8456000             -1.2245280        
        2.3501200              0.1173930        
        1.4671700              4.0554430        
        0.7806710             -3.3801850        
        0.3946960             -1.5351860        
        0.1753230              2.9459960        
        0.0788420             -0.4434390        
    S   13   1.00
        103.6120000             -0.0140470        
        64.6859000              0.0725050        
        39.8400000             -0.1892580        
        24.9011000              0.2492270        
        14.0033000             -0.2112040        
        7.8909000              1.3748360        
        4.8456000             -4.3141010        
        2.3501200              6.2274430        
        1.4671700              0.2464040        
        0.7806710             -8.7140170        
        0.3946960              8.0961770        
        0.1753230             -2.6016490        
        0.0788420             -1.3052060        
    S   1   1.00
        0.0353890              1.0000000        
    P   10   1.00
        37.9380000              0.0022880        
        23.7097000             -0.0197140        
        14.8236000              0.0680900        
        5.7904600             -0.2834570        
        1.6955600              0.4743470        
        0.8984940              0.4685560        
        0.4791880              0.1999420        
        0.2565920              0.0374850        
        0.1170930              0.0049230        
        0.0536550             -0.0002350        
    P   10   1.00
        37.9380000             -0.0003110        
        23.7097000              0.0043080        
        14.8236000             -0.0177850        
        5.7904600              0.0831780        
        1.6955600             -0.1697580        
        0.8984940             -0.1738130        
        0.4791880             -0.0704300        
        0.2565920              0.1836310        
        0.1170930              0.4407300        
        0.0536550              0.4297890        
    P   10   1.00
        37.9380000             -0.0011220        
        23.7097000              0.0110810        
        14.8236000             -0.0414980        
        5.7904600              0.1899730        
        1.6955600             -0.4366320        
        0.8984940             -0.4092230        
        0.4791880              0.1550110        
        0.2565920              0.6645690        
        0.1170930              0.3881160        
        0.0536550              0.0254450        
    P   10   1.00
        37.9380000             -0.0041670        
        23.7097000              0.0265230        
        14.8236000             -0.0799420        
        5.7904600              0.3477530        
        1.6955600             -1.1962950        
        0.8984940             -0.1291690        
        0.4791880              1.6717400        
        0.2565920             -0.1548040        
        0.1170930             -0.8066650        
        0.0536550             -0.1591940        
    P   10   1.00
        37.9380000              0.0103860        
        23.7097000             -0.0201920        
        14.8236000             -0.0425740        
        5.7904600              0.4853910        
        1.6955600             -3.0474380        
        0.8984940              3.9852690        
        0.4791880             -0.7191050        
        0.2565920             -1.8265930        
        0.1170930              0.9270640        
        0.0536550              0.3635220        
    P   1   1.00
        0.0243160              1.0000000        
    D   9   1.00
        64.4513000              0.0000680        
        19.3509000             -0.0005040        
        12.0833000              0.0083040        
        5.9549800             -0.0611390        
        1.9173700              0.1964910        
        1.0249700              0.3325240        
        0.5295130              0.3345920        
        0.2633060              0.2408270        
        0.1253540              0.1146710        
    D   9   1.00
        64.4513000             -0.0001260        
        19.3509000              0.0011530        
        12.0833000             -0.0110570        
        5.9549800              0.0760890        
        1.9173700             -0.2885010        
        1.0249700             -0.4787580        
        0.5295130             -0.0290100        
        0.2633060              0.4365010        
        0.1253540              0.4392350        
    D   9   1.00
        64.4513000              0.0004210        
        19.3509000             -0.0050290        
        12.0833000              0.0243060        
        5.9549800             -0.1285460        
        1.9173700              0.6635180        
        1.0249700              0.3912420        
        0.5295130             -0.9712290        
        0.2633060             -0.3239450        
        0.1253540              0.5670810        
    D   9   1.00
        64.4513000              0.0000130        
        19.3509000             -0.0007420        
        12.0833000             -0.0189880        
        5.9549800              0.1919930        
        1.9173700             -1.6656810        
        1.0249700              1.4998920        
        0.5295130              0.6224520        
        0.2633060             -1.3952750        
        0.1253540              0.2067550        
    D   1   1.00
        0.0558110              1.0000000        
    F   1   1.00
        1.6660000              1.0000000        
    F   1   1.00
        0.7019000              1.0000000        
    F   1   1.00
        0.2958000              1.0000000        
    G   1   1.00
        1.7070000              1.0000000        
    G   1   1.00
        0.6166000              1.0000000        
    H   1   1.00
        1.1498000              1.0000000        
    ****
$end

$ecp
    PT     0
    PT-ECP     5     60
    h-ul potential
    1
    2      1.00000000             0.00000000       
    s-ul potential
    2
    2     14.60450000           429.64608700       
    2      7.21828700            73.15688400       
    p-ul potential
    4
    2     11.57716200            88.02291700       
    2     10.88384300           175.99819600       
    2      6.42440300            13.68227400       
    2      5.22419800            27.41465100       
    d-ul potential
    4
    2      7.69961000            43.55785200       
    2      7.55080800            65.36910800       
    2      3.96116400             7.01859600       
    2      3.87277700            11.39173300       
    f-ul potential
    2
    2      3.37986900            10.71022000       
    2      3.32625500            14.27812500       
    g-ul potential
    2
    2      5.45202000           -11.65174900       
    2      5.41258500           -14.37552500       
    ****
$end
