$rem
SCF_PRINT                     1
BASIS                         6-311++g**
SCF_SAVE_MATRICES             1
SCF_CONVERGENCE               5
SCF_FINAL_PRINT               1
METHOD                        hf
JOBTYPE                       sp
$end

$molecule
0 1
C    0.0    0.0    3.0826195
H    0.5868776    0.8381742    3.4463772
H    -1.0193189    0.0891638    3.4463772
H    0.0    0.0    1.9966697
H    0.4324413    -0.927338    3.4463772
$end


