$rem
SCF_PRINT                     1
BASIS                         6-311++g**
SCF_SAVE_MATRICES             1
SCF_CONVERGENCE               5
SCF_FINAL_PRINT               1
METHOD                        hf
JOBTYPE                       sp
$end

$molecule
0 1
I    -0.205324409    -3.368518313    1.883768735
C    0.06919685    -5.471929013    1.872749216
H    0.07360107    -5.805636321    0.83982588
H    1.018048659    -5.689860688    2.352917164
H    -0.752874404    -5.922024645    2.420412903
$end


