$rem
SCF_PRINT                     1
BASIS                         6-311++g**
SCF_SAVE_MATRICES             1
SCF_CONVERGENCE               5
SCF_FINAL_PRINT               1
METHOD                        hf
JOBTYPE                       sp
$end

$molecule
0 1
H    1.101371146    -0.000117739    -0.587770996
O    0.397090227    -2.7546e-05    0.067866526
C    1.005829292    1.3334e-05    1.347930653
H    0.205003605    -4.3e-07    2.081297025
H    1.620180682    -0.886685805    1.514496095
H    1.620127834    0.886756142    1.514470494
Cl    1.5347557    -2.78e-07    -3.014973713
C    -0.250343184    1.1724e-05    -3.026056648
H    -0.580143384    1.8132e-05    -4.057685667
H    -0.592367277    -0.887056056    -2.508114642
H    -0.592357482    0.887077343    -2.508105102
$end


