$rem
SCF_PRINT                     1
BASIS                         6-311++g**
SCF_SAVE_MATRICES             1
SCF_CONVERGENCE               5
SCF_FINAL_PRINT               1
METHOD                        hf
JOBTYPE                       sp
$end

$molecule
0 1
N    0.2793014    2.4068393    -0.6057517
C    -1.084857    2.4457461    -0.5511608
H    -1.6594403    3.0230294    -1.2560905
N    -1.5977117    1.7179877    0.4287543
C    -0.4897255    1.1714358    1.030191
C    -0.3461366    0.291471    2.1172343
N    -1.418709    -0.1677767    2.8101441
H    -1.238875    -0.9594802    3.4047578
H    -2.2918734    -0.1788223    2.3073619
N    0.885763    -0.0700763    2.4919494
C    1.9352348    0.4072878    1.7968022
H    2.906033    0.0788414    2.1458181
N    1.9409775    1.2242019    0.7402202
C    0.6952186    1.5779858    0.4063984
H    0.8610073    2.8298045    -1.3104502
$end


