$rem
SCF_PRINT                     1
BASIS                         6-311++g**
SCF_SAVE_MATRICES             1
SCF_CONVERGENCE               5
SCF_FINAL_PRINT               1
METHOD                        hf
JOBTYPE                       sp
$end

$molecule
0 1
F    -0.071729041    -0.108855435    0.260652232
H    -0.003218488    -0.010570213    1.202783243
N    0.052011732    0.047562391    2.873452643
H    1.0068262    0.080163433    3.205933085
C    -0.623816269    -1.146237096    3.397788453
H    -1.646683561    -1.160140608    3.032274493
H    -0.124806297    -2.030639328    3.011967991
H    -0.641816332    -1.203100448    4.486612449
H    -0.39708885    0.883158389    3.224595791
$end


