$rem
SCF_PRINT                     1
BASIS                         6-311++g**
SCF_SAVE_MATRICES             1
SCF_CONVERGENCE               5
SCF_FINAL_PRINT               1
METHOD                        hf
JOBTYPE                       sp
$end

$molecule
0 1
C    -0.223913    0.002109    0.127404
C    -0.229554    0.001265    1.520572
C    0.966066    -0.0021    2.235729
C    2.176417    -0.004636    1.545888
C    2.194095    -0.003818    0.152623
C    0.992179    -0.000449    -0.552274
Br    -1.869237    0.004669    2.446186
H    0.946534    -0.002734    3.316252
H    3.10476    -0.007248    2.100804
H    3.135463    -0.005789    -0.378706
H    0.99688    0.000205    -1.633817
H    -1.159029    0.004715    -0.414303
N    -4.443847216    0.003241324    3.917575142
C    -5.269667216    -1.075483676    3.409420142
C    -4.151048216    -0.203416676    5.323037142
C    -5.102631216    1.280426324    3.720892142
H    -5.062163216    -0.220699676    5.941925142
H    -3.629556216    -1.150340676    5.453179142
H    -3.505905216    0.595924324    5.684173142
H    -6.064049216    1.341711324    4.255123142
H    -4.459570216    2.083221324    4.077923142
H    -5.289110216    1.436927324    2.659644142
H    -6.239899216    -1.138941676    3.927201142
H    -5.456675216    -0.924671676    2.347429142
H    -4.750743216    -2.024428676    3.534754142
$end


