$rem
SCF_PRINT                     1
BASIS                         6-311++g**
SCF_SAVE_MATRICES             1
SCF_CONVERGENCE               5
SCF_FINAL_PRINT               1
METHOD                        hf
JOBTYPE                       sp
$end

$molecule
0 1
O    -1.3976213    -1.8858368    -0.3673061
N    -1.464255    0.3641828    0.0192301
C    -4.1857398    0.3696669    0.036096
C    -3.4832598    1.5783111    0.2500752
C    -2.1179502    1.5307048    0.2338383
C    -2.0773833    -0.8637492    -0.1899414
C    -3.5156032    -0.805195    -0.1757585
H    -5.2678045    0.3707428    0.0411419
H    -3.9920334    2.512756    0.4214414
H    -1.4929196    2.3984096    0.3885018
H    -4.0401226    -1.7348452    -0.3379269
H    -0.4265266    0.3612127    0.0073538
$end


