$rem
SCF_PRINT                     1
BASIS                         6-311++g**
SCF_SAVE_MATRICES             1
SCF_CONVERGENCE               5
SCF_FINAL_PRINT               1
METHOD                        hf
JOBTYPE                       sp
$end

$molecule
0 1
Br    0.430759046    -0.000115215    -0.107945607
H    0.01775041    -1.3811e-05    1.259967353
O    -0.257020059    0.000182833    3.141151173
H    -1.048680694    -4.0312e-05    3.684018874
C    0.880527259    2.5604e-05    3.997486173
H    1.753839233    9.853e-05    3.353020187
H    0.91354958    0.888915397    4.626706548
H    0.913509357    -0.889046121    4.62645042
$end


