$rem
SCF_PRINT                     1
BASIS                         6-311++g**
SCF_SAVE_MATRICES             1
SCF_CONVERGENCE               5
SCF_FINAL_PRINT               1
METHOD                        hf
JOBTYPE                       sp
$end

$molecule
0 1
O    1.902892753    0.321317956    -0.0058889
H    2.357570941    -0.049824215    -0.765819097
H    2.357578038    -0.050794037    0.753566975
$end


