$rem
SCF_PRINT                     1
BASIS                         6-311++g**
SCF_SAVE_MATRICES             1
SCF_CONVERGENCE               5
SCF_FINAL_PRINT               1
METHOD                        hf
JOBTYPE                       sp
$end

$molecule
0 1
C    0.301152114    -0.173118099    2.764480435
Cl    -0.024870834    -0.077582132    1.017161127
H    1.247502252    0.314602623    2.964654708
H    0.346131151    -1.217442126    3.048836143
H    -0.501709016    0.328185531    3.291345152
$end


