$rem
SCF_PRINT                     1
BASIS                         6-311++g**
SCF_SAVE_MATRICES             1
SCF_CONVERGENCE               5
SCF_FINAL_PRINT               1
METHOD                        hf
JOBTYPE                       sp
$end

$molecule
0 1
O    1.350625    0.111469    0.0
H    1.680398    -0.373741    -0.758561
H    1.680398    -0.373741    0.758561
$end


