$rem
SCF_PRINT                     1
BASIS                         6-311++g**
SCF_SAVE_MATRICES             1
SCF_CONVERGENCE               5
SCF_FINAL_PRINT               1
METHOD                        hf
JOBTYPE                       sp
$end

$molecule
0 1
N    1.578718    0.046611    0.0
H    2.158621    -0.136396    -0.809565
H    0.849471    -0.658193    0.0
H    2.158621    -0.136396    0.809565
$end


