$rem
SCF_PRINT                     1
BASIS                         6-311++g**
SCF_SAVE_MATRICES             1
SCF_CONVERGENCE               5
SCF_FINAL_PRINT               1
METHOD                        hf
JOBTYPE                       sp
$end

$molecule
0 1
N    -0.0034118    3.5353926    0.0
C    0.0751963    2.370704    0.0
H    0.1476295    1.3052847    0.0
$end


