$rem
SCF_PRINT                     1
BASIS                         6-311++g**
SCF_SAVE_MATRICES             1
SCF_CONVERGENCE               5
SCF_FINAL_PRINT               1
METHOD                        hf
JOBTYPE                       sp
$end

$molecule
0 1
O    4.688782228    1.192694165    0.788621015
C    5.236612511    0.16210948    0.46433639
H    6.327564644    0.039937485    0.529623404
H    4.669249211    -0.702665676    0.088392932
$end


