$rem
SCF_PRINT                     1
BASIS                         6-311++g**
SCF_SAVE_MATRICES             1
SCF_CONVERGENCE               5
SCF_FINAL_PRINT               1
METHOD                        hf
JOBTYPE                       sp
$end

$molecule
0 1
C    2.3411e-05    0.000105759    2.053285735
F    -1.082526715    0.625339904    1.589816968
F    1.082627682    0.625237764    1.589922249
F    -2.386e-05    -1.249820225    1.589264753
H    -4.196e-05    -0.000280062    3.138092074
$end


