$rem
SCF_PRINT                     1
BASIS                         6-311++g**
SCF_SAVE_MATRICES             1
SCF_CONVERGENCE               5
SCF_FINAL_PRINT               1
METHOD                        hf
JOBTYPE                       sp
$end

$molecule
0 1
C    0.052125307    -0.031919514    1.840660293
Cl    -1.491715802    0.847207403    1.755184684
H    0.81190911    0.554725768    1.338264649
H    -0.067811208    -0.989274688    1.347792712
H    0.311197296    -0.173143788    2.883203118
$end


