$rem
SCF_PRINT                     1
BASIS                         6-311++g**
SCF_SAVE_MATRICES             1
SCF_CONVERGENCE               5
SCF_FINAL_PRINT               1
METHOD                        hf
JOBTYPE                       sp
$end

$molecule
0 1
C    -0.09550128    -0.091133031    -0.141315705
I    1.83039588    0.396977839    0.615165203
H    -0.179397714    -1.169911689    -0.184336422
H    -0.836289841    0.323841164    0.530854584
H    -0.191259588    0.340771952    -1.12975727
$end


