$rem
SCF_PRINT                     1
BASIS                         6-311++g**
SCF_SAVE_MATRICES             1
SCF_CONVERGENCE               5
SCF_FINAL_PRINT               1
METHOD                        hf
JOBTYPE                       sp
$end

$molecule
0 1
C    0.228087368    -0.006027308    -0.103512024
Cl    1.808884452    0.632806687    0.291464994
F    0.331959317    -1.250132504    -0.555496397
F    -0.551167778    -0.01333945    0.969446208
F    -0.350921815    0.733335757    -1.03965153
$end


