$rem
SCF_PRINT                     1
BASIS                         6-311++g**
SCF_SAVE_MATRICES             1
SCF_CONVERGENCE               5
SCF_FINAL_PRINT               1
METHOD                        hf
JOBTYPE                       sp
$end

$molecule
0 1
C    -0.223913    0.002109    0.127404
C    -0.229554    0.001265    1.520572
C    0.966066    -0.0021    2.235729
C    2.176417    -0.004636    1.545888
C    2.194095    -0.003818    0.152623
C    0.992179    -0.000449    -0.552274
Br    -1.869237    0.004669    2.446186
H    0.946534    -0.002734    3.316252
H    3.10476    -0.007248    2.100804
H    3.135463    -0.005789    -0.378706
H    0.99688    0.000205    -1.633817
H    -1.159029    0.004715    -0.414303
$end


