$rem
SCF_PRINT                     1
BASIS                         6-311++g**
SCF_SAVE_MATRICES             1
SCF_CONVERGENCE               5
SCF_FINAL_PRINT               1
METHOD                        hf
JOBTYPE                       sp
$end

$molecule
0 1
C    -2.3095e-05    0.000461919    -1.900304972
H    2.4593e-05    -0.001407092    -2.986061026
H    -0.885500277    -0.510272086    -1.535173451
H    0.885623343    -0.510121803    -1.535137023
H    -9.3238e-05    1.023638315    -1.537792773
$end


